c instance by G2
c solution = 001000000000110010010
c Known solution cost is 1061 
p cnf 21 30
w 58 5 22 8 65 99 38 67 30 40 34 73 15 39 92 10 98 40 86 72 70
10 7 -18 0
21 15 -12 0
20 -14 9 0
11 18 -1 0
2 19 17 0
-16 14 19 0
-14 18 -8 0
-1 9 2 0
21 -11 15 0
-15 14 -17 0
13 -15 -9 0
4 21 -2 0
3 -14 7 0
-20 -16 -14 0
16 2 14 0
-9 12 8 0
7 -15 2 0
13 8 -19 0
-10 12 8 0
8 12 -7 0
21 -14 -6 0
6 -7 1 0
13 5 -14 0
-19 9 5 0
19 -21 16 0
-20 -5 -3 0
18 5 -11 0
-6 -15 -4 0
15 12 -4 0
-18 1 -9 0
